certificates/rado_a7_c275_N39.cnf
c Rad2 upper bound instance: x1 + 7*x2 - x3 = 275, interval [1,39]
p cnf 39 234
1 3 39 0
-1 -3 -39 0
2 4 39 0
-2 -4 -39 0
3 5 39 0
-3 -5 -39 0
4 6 39 0
-4 -6 -39 0
5 7 39 0
-5 -7 -39 0
6 8 39 0
-6 -8 -39 0
7 9 39 0
-7 -9 -39 0
1 10 38 0
-1 -10 -38 0
8 10 39 0
-8 -10 -39 0
2 11 38 0
-2 -11 -38 0
9 11 39 0
-9 -11 -39 0
3 12 38 0
-3 -12 -38 0
10 12 39 0
-10 -12 -39 0
4 13 38 0
-4 -13 -38 0
11 13 39 0
-11 -13 -39 0
5 14 38 0
-5 -14 -38 0
12 14 39 0
-12 -14 -39 0
6 15 38 0
-6 -15 -38 0
13 15 39 0
-13 -15 -39 0
7 16 38 0
-7 -16 -38 0
14 16 39 0
-14 -16 -39 0
1 17 37 0
-1 -17 -37 0
8 17 38 0
-8 -17 -38 0
15 17 39 0
-15 -17 -39 0
2 18 37 0
-2 -18 -37 0
9 18 38 0
-9 -18 -38 0
16 18 39 0
-16 -18 -39 0
3 19 37 0
-3 -19 -37 0
10 19 38 0
-10 -19 -38 0
17 19 39 0
-17 -19 -39 0
4 20 37 0
-4 -20 -37 0
11 20 38 0
-11 -20 -38 0
18 20 39 0
-18 -20 -39 0
5 21 37 0
-5 -21 -37 0
12 21 38 0
-12 -21 -38 0
19 21 39 0
-19 -21 -39 0
6 22 37 0
-6 -22 -37 0
13 22 38 0
-13 -22 -38 0
20 22 39 0
-20 -22 -39 0
7 23 37 0
-7 -23 -37 0
14 23 38 0
-14 -23 -38 0
21 23 39 0
-21 -23 -39 0
1 24 36 0
-1 -24 -36 0
8 24 37 0
-8 -24 -37 0
15 24 38 0
-15 -24 -38 0
22 24 39 0
-22 -24 -39 0
2 25 36 0
-2 -25 -36 0
9 25 37 0
-9 -25 -37 0
16 25 38 0
-16 -25 -38 0
23 25 39 0
-23 -25 -39 0
3 26 36 0
-3 -26 -36 0
10 26 37 0
-10 -26 -37 0
17 26 38 0
-17 -26 -38 0
24 26 39 0
-24 -26 -39 0
4 27 36 0
-4 -27 -36 0
11 27 37 0
-11 -27 -37 0
18 27 38 0
-18 -27 -38 0
25 27 39 0
-25 -27 -39 0
5 28 36 0
-5 -28 -36 0
12 28 37 0
-12 -28 -37 0
19 28 38 0
-19 -28 -38 0
26 28 39 0
-26 -28 -39 0
6 29 36 0
-6 -29 -36 0
13 29 37 0
-13 -29 -37 0
20 29 38 0
-20 -29 -38 0
27 29 39 0
-27 -29 -39 0
7 30 36 0
-7 -30 -36 0
14 30 37 0
-14 -30 -37 0
21 30 38 0
-21 -30 -38 0
28 30 39 0
-28 -30 -39 0
1 31 35 0
-1 -31 -35 0
8 31 36 0
-8 -31 -36 0
15 31 37 0
-15 -31 -37 0
22 31 38 0
-22 -31 -38 0
29 31 39 0
-29 -31 -39 0
2 32 35 0
-2 -32 -35 0
9 32 36 0
-9 -32 -36 0
16 32 37 0
-16 -32 -37 0
23 32 38 0
-23 -32 -38 0
30 32 39 0
-30 -32 -39 0
3 33 35 0
-3 -33 -35 0
10 33 36 0
-10 -33 -36 0
17 33 37 0
-17 -33 -37 0
24 33 38 0
-24 -33 -38 0
31 33 39 0
-31 -33 -39 0
4 34 35 0
-4 -34 -35 0
11 34 36 0
-11 -34 -36 0
18 34 37 0
-18 -34 -37 0
25 34 38 0
-25 -34 -38 0
32 34 39 0
-32 -34 -39 0
5 35 0
-5 -35 0
12 35 36 0
-12 -35 -36 0
19 35 37 0
-19 -35 -37 0
26 35 38 0
-26 -35 -38 0
33 35 39 0
-33 -35 -39 0
6 35 36 0
-6 -35 -36 0
13 36 0
-13 -36 0
20 36 37 0
-20 -36 -37 0
27 36 38 0
-27 -36 -38 0
34 36 39 0
-34 -36 -39 0
7 35 37 0
-7 -35 -37 0
14 36 37 0
-14 -36 -37 0
21 37 0
-21 -37 0
28 37 38 0
-28 -37 -38 0
35 37 39 0
-35 -37 -39 0
1 34 38 0
-1 -34 -38 0
8 35 38 0
-8 -35 -38 0
15 36 38 0
-15 -36 -38 0
22 37 38 0
-22 -37 -38 0
29 38 0
-29 -38 0
36 38 39 0
-36 -38 -39 0
2 34 39 0
-2 -34 -39 0
9 35 39 0
-9 -35 -39 0
16 36 39 0
-16 -36 -39 0
23 37 39 0
-23 -37 -39 0
30 38 39 0
-30 -38 -39 0
37 39 0
-37 -39 0
