certificates/rado_a7_c275_N39.drat
-39 0
37 0
-21 0
19 0
23 0
-3 0
-35 0
-7 0
1 0
5 0
33 0
9 0
-17 0
-25 0
15 0
27 0
-31 0
-11 0
29 0
13 0
0
